\ example 3 from Xpress lp_files doc
Minimize
obj: - 2 x3

Subject To
c1: x2 - x1 <= 10

\SOS
sos101: 4 x2 + 2 x3 = S2

c2: x1 + x2 + x3 <= 20

sos102: x1 + x2 + x3 = S1
sos201: 1.2 x3 +1.3 x2 + 1.4 x1 = S2

Bounds
x1 <= 30
2 <= x3 <= 3

End
